Test: hole017_shuffled.cnf
Options: -no-inverting-opt -activity-nl-freq=1
WARNING: for repeatability, setting FPU to use double precision
============================[ Problem Statistics ]=============================
|                                                                             |
|  Number of symmetries:           33                                         |
|  Number of invertingSyms:         0                                         |
|  Number of variables:           306                                         |
|  Number of clauses:            2619                                         |
|  Parse time:                   0.00 s                                       |
|                                                                             |
============================[ Search Statistics ]==============================
| Conflicts |          ORIGINAL         |          LEARNT          | Progress |
|           |    Vars  Clauses Literals |    Limit  Clauses Lit/Cl |          |
===============================================================================
|       100 |     306     2619     5508 |      960      106    114 |  0.001 % |
|       250 |     306     2619     5508 |     1056      297     76 |  0.001 % |
|       475 |     306     2619     5508 |     1161      663     73 |  0.001 % |
|       812 |     306     2619     5508 |     1278     1119     69 |  0.001 % |
|      1318 |     306     2619     5508 |     1405     1232     69 |  0.001 % |
|      2077 |     306     2619     5508 |     1546     1469     94 |  0.001 % |
|      3216 |     306     2619     5508 |     1701     1140    131 |  0.001 % |
|      4924 |     306     2619     5508 |     1871     1111    112 |  0.001 % |
|      7486 |     306     2619     5508 |     2058     1708    113 |  0.001 % |
|     11330 |     306     2619     5508 |     2264     1538    116 |  0.001 % |
|     17096 |     306     2619     5508 |     2490     2270    123 |  0.001 % |
|     25745 |     306     2619     5508 |     2739     1680    111 |  0.001 % |
|     38719 |     306     2619     5508 |     3013     2937    115 |  0.001 % |
|     58180 |     306     2619     5508 |     3315     2757    111 |  0.001 % |
|     87372 |     306     2619     5508 |     3646     2513    103 |  0.001 % |
|    131161 |     306     2619     5508 |     4011     2419    119 |  0.001 % |
|    196845 |     306     2619     5508 |     4412     2560    117 |  0.001 % |
|    295371 |     306     2619     5508 |     4853     3005    111 |  0.001 % |
|    443160 |     306     2619     5508 |     5339     5002    107 |  0.001 % |
|    664843 |     306     2619     5508 |     5873     3454     96 |  0.001 % |
|    997368 |     306     2619     5508 |     6460     4605    101 |  0.001 % |
|   1496156 |     306     2619     5508 |     7106     4983    109 |  0.001 % |
|   2244338 |     306     2619     5508 |     7817     4192    120 |  0.001 % |
|   3366612 |     306     2619     5508 |     8598     4710    113 |  0.001 % |
|   5050023 |     306     2619     5508 |     9458     6516    113 |  0.001 % |
|   7575139 |     306     2619     5508 |    10404     8808    105 |  0.001 % |
===============================================================================
restarts              : 16383
conflicts             : 10910331       (13423 /sec)
symconflicts          : 1457453        (1793 /sec)
decisions             : 19586686       (0.00 % random) (24097 /sec)
propagations          : 221631003      (272666 /sec)
sympropagations       : 7349201        (9041 /sec)
conflict literals     : 1279350649     (6.79 % deleted)
literals     : 1279350649     (6.79 % deleted)

HEURISTIC USAGES
random                : 0           
activity w/ lookahead : 0           
activity no lookahead : 19586686    
original sp           : 0           
sym count             : 0           

Memory used           : 36.00 MB
CPU time              : 812.831 s

UNSATISFIABLE
